p cnf 2250 2154
c ind 1013 1014 1015 1016 1017 1018 1019 1020 1021 1022 0
c ind 1023 1024 1025 1026 1027 1028 1029 1030 1031 1032 0
c ind 1033 1034 1035 1036 1037 1038 1039 737 813 1040 0
c ind 1048 1041 1049 1042 1050 1043 1051 1052 1053 1054 0
c ind 1055 1044 1056 1057 1058 1059 1060 1061 1062 1045 0
c ind 1063 1046 1064 1065 1047 1066 1067 1106 1068 789 0
c ind 1107 790 791 792 1108 793 794 1109 795 796 0
c ind 797 1110 1111 798 799 800 801 802 803 738 0
c ind 804 805 806 807 1112 808 1113 809 814 1114 0
c ind 1115 815 816 817 1116 818 819 820 821 822 0
c ind 1117 823 824 1118 825 826 1119 827 1120 828 0
c ind 829 830 831 832 833 1121 1122 834 835 836 0
c ind 837 1123 838 839 840 841 842 843 844 845 0
c ind 1124 846 847 848 739 849 1125 850 1126 851 0
c ind 852 1127 853 1128 854 855 1069 1070 1071 1072 0
c ind 1073 1074 1075 1076 1077 1078 1079 1080 1081 1082 0
c ind 1083 1084 1085 1086 1087 1088 1089 1090 1091 1092 0
c ind 1093 1094 1095 1096 1097 1098 1099 1100 1101 810 0
c ind 1102 1103 1104 1105 695 696 697 698 699 700 0
c ind 701 702 703 704 705 706 707 708 709 710 0
c ind 711 712 713 714 715 716 717 718 719 720 0
c ind 721 722 723 724 725 726 727 728 729 730 0
c ind 731 732 733 734 735 736 1292 1293 1294 1295 0
c ind 1296 1297 1298 1299 1300 1301 1302 1303 1304 1305 0
c ind 1306 1307 1308 1309 1310 1311 1312 1313 1314 1315 0
c ind 1316 811 1317 1318 1319 1320 1321 1322 1323 1324 0
c ind 1325 1326 1327 1328 1329 1330 1331 1332 1333 740 0
c ind 741 742 743 744 745 746 747 748 749 750 0
c ind 751 752 753 754 755 756 757 758 759 760 0
c ind 761 812 762 763 764 765 766 767 768 769 0
c ind 770 771 772 773 774 775 776 777 778 779 0
c ind 780 781 782 783 784 785 786 787 788 969 0
c ind 970 971 972 973 974 975 976 977 978 979 0
c ind 980 981 982 983 984 985 986 987 988 989 0
c ind 990 991 992 993 994 995 996 997 998 999 0
c ind 1000 1001 1002 1003 1004 1005 1006 1007 1008 1009 0
c ind 1010 1011 1012 0
556 -557 645 0
556 -557 582 0
-556 557 0
-582 -645 -556 0
557 -558 -572 -581 0
-557 558 0
-557 572 0
-557 581 0
558 559 -563 0
-558 -559 0
-558 563 0
-560 -793 559 0
-562 -793 559 0
-561 -793 559 0
-559 793 0
-559 560 561 562 0
560 -799 800 801 0
-560 799 0
-560 -801 0
-560 -800 0
561 799 802 803 0
-561 -799 0
-561 -803 0
-561 -802 0
562 -794 795 796 0
-562 794 0
-562 -796 0
-562 -795 0
563 564 568 -823 -851 0
-563 851 0
-563 -568 0
-563 823 0
-563 -564 0
565 824 564 825 826 0
-564 -565 0
-564 -826 0
-564 -824 0
-564 -825 0
565 566 -829 0
565 566 567 -830 0
-565 -566 0
-565 -567 829 0
-565 829 830 0
566 827 -828 0
-566 -827 0
-566 828 0
567 835 836 0
567 835 843 844 0
-567 -835 0
-567 -836 -843 0
-567 -836 -844 0
569 852 568 853 854 0
-568 -569 0
-568 -854 0
-568 -852 0
-568 -853 0
569 570 -1070 0
569 570 571 -1071 0
-569 -570 0
-569 -571 1070 0
-569 1070 1071 0
570 855 -1069 0
-570 -855 0
-570 1069 0
571 1076 1077 0
571 1076 1084 1085 0
-571 -1076 0
-571 -1077 -1084 0
-571 -1077 -1085 0
572 -575 1325 0
572 -575 1318 0
572 573 -575 0
-572 575 0
-573 -1318 -572 -1325 0
573 -574 -1326 1327 0
-573 1326 0
-573 -1327 0
-573 574 0
574 1329 -1330 -1331 1332 0
-574 -1329 0
-574 -1332 0
-574 1331 0
-574 1330 0
575 576 -579 580 0
575 576 -579 737 0
-575 579 0
-575 -576 0
-580 -737 -575 0
-577 -578 576 -1307 0
-577 -578 576 -1308 0
-576 578 0
-576 577 0
-576 1307 1308 0
577 1310 1311 1312 1313 0
-577 -1313 0
-577 -1312 0
-577 -1310 0
-577 -1311 0
578 -1304 -1305 -1306 1309 0
-578 1306 0
-578 -1309 0
-578 1304 0
-578 1305 0
579 -760 -969 -998 0
-579 760 0
-579 969 0
-579 998 0
580 721 722 723 0
-580 -721 0
-580 -723 0
-580 -722 0
581 -810 -811 0
581 -739 812 0
581 -739 -811 0
581 -810 812 0
811 -812 -581 0
739 810 -581 0
582 -583 635 1287 0
582 -583 -635 -1287 0
-582 583 0
-582 635 -1287 0
-582 -635 1287 0
583 -584 625 1134 0
583 -584 -625 -1134 0
-583 584 0
-583 625 -1134 0
-583 -625 1134 0
584 -624 -585 1250 0
584 624 -585 -1250 0
-584 585 0
-584 -624 -1250 0
-584 624 1250 0
585 -602 -586 0
-585 586 0
-585 602 0
586 -579 -587 0
586 -579 600 0
579 -586 0
587 -600 -586 0
587 -588 -599 -1043 0
587 588 -589 -599 0
-587 599 0
-587 -588 1043 0
-587 588 589 0
588 755 -757 0
-588 -755 0
-588 757 0
589 -590 -1042 0
589 590 -591 0
-589 -590 1042 0
-589 590 591 0
590 1321 -1323 0
-590 -1321 0
-590 1323 0
591 592 576 598 0
591 592 576 -595 0
-576 -591 0
-591 -592 0
-591 595 -598 0
592 -593 737 -1297 0
558 592 737 1297 0
-592 -737 0
-592 593 -1297 0
-592 1297 -558 0
558 593 594 0
593 -594 1040 0
-593 594 -558 0
-593 -594 -1040 0
594 708 -710 0
-594 -708 0
-594 710 0
593 595 -596 0
-593 -595 0
-595 596 0
596 597 -721 0
596 597 -722 0
596 597 -723 0
-596 -597 0
-596 721 722 723 0
597 729 -731 0
-597 -729 0
-597 731 0
597 598 -737 0
598 -737 1041 0
-598 737 0
-597 -598 -1041 0
599 -1318 1325 0
-599 1318 0
-599 -1325 0
600 601 -1318 0
589 591 600 0
591 600 601 0
589 600 -1318 0
-591 -600 1318 0
-589 -600 -601 0
573 601 -1318 -1325 0
-601 1318 0
-601 1325 0
-573 -601 0
602 -603 -610 0
602 605 -608 -610 0
-602 610 0
603 -605 -602 0
603 608 -602 0
-590 603 -1318 0
603 -604 -1318 0
-603 1318 0
590 -603 604 0
-588 604 -1115 1325 0
-604 1115 0
-604 -1325 0
588 -604 0
605 -607 737 -1297 0
605 606 737 1297 0
-605 -737 0
-605 607 -1297 0
-605 -606 1297 0
606 -811 -558 0
-606 811 0
558 -606 0
-594 607 1112 0
594 606 607 0
-594 -607 -1112 0
594 -606 -607 0
608 609 576 0
-596 607 576 608 0
-576 -608 0
596 -608 -609 0
-607 -608 -609 0
597 609 -737 0
609 -737 1113 0
-609 737 0
-597 -609 -1113 0
610 -611 -613 -618 0
610 613 -615 -618 0
-610 618 0
611 -613 -610 0
613 615 -610 0
611 -1035 -1123 0
611 612 -1123 0
-611 1123 0
-611 -612 1035 0
612 -1027 -563 1029 0
-612 1027 0
-612 -1029 0
563 -612 0
613 614 1097 0
613 -737 1097 0
613 1097 -1297 0
-613 -1097 0
-613 -614 737 1297 0
614 1298 1299 1300 1301 0
-614 -1301 0
-614 -1300 0
-614 -1298 0
-614 -1299 0
615 617 -563 -1033 0
615 616 -563 617 0
563 -615 0
-615 -617 0
-615 -616 1033 0
616 -1027 1029 0
-616 1027 0
-616 -1029 0
-559 617 1027 0
617 1027 1052 1122 0
-617 -1027 0
-617 -1052 559 0
-617 -1122 559 0
-604 618 -572 0
618 619 -572 0
618 -623 -572 0
572 -618 0
604 -619 -618 623 0
-590 619 -1318 0
619 620 -1318 0
-619 1318 0
590 -619 -620 0
620 621 622 0
574 620 621 -1318 0
-620 -621 0
-620 -622 1318 0
-574 -620 -622 0
-588 621 1325 0
-621 -1325 0
588 -621 0
622 -1325 -1326 1327 0
-622 1325 0
-622 1326 0
-622 -1327 0
-620 623 -1114 0
-623 1114 0
620 -623 0
-612 624 -572 0
572 -624 0
612 -624 0
625 -626 -579 0
625 634 -579 0
579 -625 0
-625 626 -634 0
588 -599 626 -627 0
-588 -599 626 -1039 0
599 -626 0
588 -626 627 0
-588 -626 1039 0
-590 627 -1038 0
590 627 -628 0
-590 -627 1038 0
590 -627 628 0
628 629 576 633 0
628 629 576 -632 0
-576 -628 0
-628 -629 0
-628 632 -633 0
629 630 -737 1037 0
597 629 630 -737 0
-629 737 0
-629 -630 0
-597 -629 -1037 0
-596 630 631 0
596 -630 0
-630 -631 0
-594 631 1036 0
558 594 631 0
594 631 812 0
-594 -631 -1036 0
594 -631 -558 -812 0
632 -812 -558 1297 0
594 632 -558 -812 0
-632 812 0
558 -632 0
-594 -632 -1297 0
633 737 1297 0
633 737 1036 0
594 633 737 0
-633 -737 0
-594 -633 -1036 -1297 0
627 634 -1318 0
601 628 634 0
627 628 634 0
601 634 -1318 0
-601 -627 -634 0
-628 -634 1318 0
635 -636 -579 0
635 644 -579 0
579 -635 0
-635 636 -644 0
588 -599 636 -637 0
-588 -599 636 -1128 0
599 -636 0
588 -636 637 0
-588 -636 1128 0
-590 637 -1127 0
590 637 -638 0
-590 -637 1127 0
590 -637 638 0
638 639 576 643 0
638 639 576 -642 0
-576 -638 0
-638 -639 0
-638 642 -643 0
639 -641 737 -1297 0
639 640 737 1297 0
-639 -737 0
-639 641 -1297 0
-639 -640 1297 0
640 -1124 -558 0
-640 1124 0
558 -640 0
-594 641 1125 0
594 640 641 0
-594 -641 -1125 0
594 -640 -641 0
-596 641 642 0
596 -642 0
-641 -642 0
597 643 -737 0
643 -737 1126 0
-643 737 0
-597 -643 -1126 0
637 644 -1318 0
601 638 644 0
637 638 644 0
601 644 -1318 0
-601 -637 -644 0
-638 -644 1318 0
645 -646 -656 -1265 0
645 646 -656 1265 0
-645 656 0
-645 646 -1265 0
-645 -646 1265 0
646 -647 -579 0
646 655 -579 0
579 -646 0
-646 647 -655 0
588 -599 647 -648 0
-588 -599 647 -1106 0
599 -647 0
588 -647 648 0
-588 -647 1106 0
-590 648 -1047 0
590 648 -649 0
-590 -648 1047 0
590 -648 649 0
649 650 576 654 0
649 650 576 -653 0
-576 -649 0
-649 -650 0
-649 653 -654 0
650 -652 737 -1297 0
650 651 737 1297 0
-650 -737 0
-650 652 -1297 0
-650 -651 1297 0
651 -1044 -558 0
-651 1044 0
558 -651 0
-594 652 1045 0
594 651 652 0
-594 -652 -1045 0
594 -651 -652 0
-596 652 653 0
596 -653 0
-652 -653 0
597 654 -737 0
654 -737 1046 0
-654 737 0
-597 -654 -1046 0
648 655 -1318 0
601 649 655 0
648 649 655 0
601 655 -1318 0
-601 -648 -655 0
-649 -655 1318 0
656 657 -668 -1279 0
656 657 668 1279 0
-656 -657 0
-656 668 -1279 0
-656 -668 1279 0
657 -658 1270 0
657 658 -1270 0
-657 -658 -1270 0
-657 658 1270 0
658 665 -579 0
658 659 -579 -662 0
579 -658 0
-658 -659 -665 0
-658 662 -665 0
659 -661 737 -1297 0
659 660 737 1297 0
-659 -737 0
-659 661 -1297 0
-659 -660 1297 0
660 -1107 -558 0
-660 1107 0
558 -660 0
-594 661 1108 0
594 660 661 0
-594 -661 -1108 0
594 -660 -661 0
662 663 -664 0
-596 661 662 -664 0
-662 664 0
-661 -662 -663 0
596 -662 -663 0
597 663 -737 0
663 -737 1109 0
-663 737 0
-597 -663 -1109 0
619 664 576 0
-576 -664 0
-619 -664 0
588 665 666 0
599 665 666 0
665 666 1111 0
-665 -666 0
-588 -599 -665 -1111 0
-590 666 -667 -1110 0
-666 1110 0
590 -666 0
-666 667 0
-620 667 -1318 0
-667 1318 0
620 -667 0
668 674 -579 0
668 669 -579 -672 0
579 -668 0
-668 -669 -674 0
-668 672 -674 0
669 -671 737 -1297 0
669 670 737 1297 0
-669 -737 0
-669 671 -1297 0
-669 -670 1297 0
670 -1116 -558 0
-670 1116 0
558 -670 0
-594 671 1117 0
594 670 671 0
-594 -671 -1117 0
594 -670 -671 0
-664 672 673 0
-596 -664 671 672 0
664 -672 0
596 -672 -673 0
-671 -672 -673 0
597 673 -737 0
673 -737 1118 0
-673 737 0
-597 -673 -1118 0
588 674 675 0
599 674 675 0
674 675 1120 0
-674 -675 0
-588 -599 -674 -1120 0
-590 -667 675 -1119 0
-675 1119 0
590 -675 0
667 -675 0
681 -557 676 0
677 -557 676 0
557 -676 0
-676 -677 -681 0
625 677 -586 -678 1773 0
-625 677 -586 -678 -1773 0
-677 678 0
625 -1773 -677 0
586 -677 0
-625 1773 -677 0
678 -679 -680 1909 0
-658 678 -679 -680 0
-678 680 0
-678 679 0
658 -1909 -678 0
-624 679 -602 1889 0
624 679 -602 -1889 0
602 -679 0
-624 -1889 -679 0
624 1889 -679 0
668 680 -1909 1918 0
658 -668 680 -1918 0
-668 680 -1909 -1918 0
658 668 680 1918 0
-668 1918 -680 0
668 -1918 -680 0
-658 1909 -680 0
635 -646 681 -1904 1926 0
-635 -646 681 -1904 -1926 0
635 646 681 1904 1926 0
-635 646 681 1904 -1926 0
-646 1904 -681 0
646 -1904 -681 0
635 -1926 -681 0
-635 1926 -681 0
-646 682 -557 0
656 682 -557 0
582 682 -557 0
557 -682 0
-582 646 -656 -682 0
-657 683 -557 0
582 683 -557 0
-668 683 -557 0
557 -683 0
-582 657 668 -683 0
-658 684 -557 0
582 684 -557 0
557 -684 0
-582 658 -684 0
-635 685 -557 0
583 685 -557 0
557 -685 0
-583 635 -685 0
-625 686 -557 0
584 686 -557 0
557 -686 0
-584 625 -686 0
624 687 -557 0
585 687 -557 0
557 -687 0
-624 -687 -585 0
585 688 -557 0
557 -688 0
-585 -688 0
656 689 -557 0
582 689 -557 0
646 689 -557 0
557 -689 0
-582 -646 -656 -689 0
-657 690 -557 0
668 690 -557 0
582 690 -557 0
557 -690 0
-582 657 -668 -690 0
658 691 -557 0
582 691 -557 0
557 -691 0
-582 -658 -691 0
635 692 -557 0
583 692 -557 0
557 -692 0
-583 -635 -692 0
625 693 -557 0
584 693 -557 0
557 -693 0
-584 -625 -693 0
-624 694 -557 0
585 694 -557 0
557 -694 0
624 -694 -585 0
1 556 0
-1 -556 0
2 556 0
-2 -556 0
3 676 0
-3 -676 0
100 -682 0
-100 682 0
101 -683 0
-101 683 0
102 -684 0
-102 684 0
103 -685 0
-103 685 0
105 -686 0
-105 686 0
115 -687 0
-115 687 0
181 -688 0
-181 688 0
376 -689 0
-376 689 0
377 -690 0
-377 690 0
378 -691 0
-378 691 0
379 -692 0
-379 692 0
381 -693 0
-381 693 0
391 -694 0
-391 694 0
457 -688 0
-457 688 0
-100 -376 2070 0
100 -2070 0
376 -2070 0
100 -1265 0
-100 1265 0
-101 -377 2071 0
101 -2071 0
377 -2071 0
101 -1279 0
-101 1279 0
-102 -378 2072 0
102 -2072 0
378 -2072 0
102 -1270 0
-102 1270 0
-103 -379 2073 0
103 -2073 0
379 -2073 0
103 -1287 0
-103 1287 0
-105 -381 2075 0
105 -2075 0
381 -2075 0
105 -1134 0
-105 1134 0
-115 -391 2085 0
115 -2085 0
391 -2085 0
115 -1250 0
-115 1250 0
-181 -457 2151 0
181 -2151 0
457 -2151 0
181 -904 0
-181 904 0
-1 0
-2 0
3 0
4 0
5 0
6 0
7 0
8 0
9 0
10 0
11 0
12 0
13 0
14 0
15 0
16 0
17 0
18 0
19 0
20 0
21 0
22 0
23 0
24 0
25 0
26 0
27 0
28 0
29 0
30 0
31 0
32 0
33 0
34 0
35 0
36 0
37 0
38 0
39 0
40 0
41 0
42 0
43 0
44 0
45 0
46 0
47 0
48 0
49 0
50 0
51 0
52 0
53 0
54 0
55 0
56 0
57 0
58 0
59 0
60 0
61 0
62 0
63 0
64 0
65 0
66 0
67 0
68 0
69 0
70 0
71 0
72 0
73 0
74 0
75 0
76 0
77 0
78 0
79 0
80 0
81 0
82 0
83 0
84 0
85 0
86 0
87 0
88 0
89 0
90 0
91 0
92 0
93 0
94 0
95 0
96 0
97 0
98 0
99 0
104 0
106 0
107 0
108 0
109 0
110 0
111 0
112 0
113 0
114 0
116 0
117 0
118 0
119 0
120 0
121 0
122 0
123 0
124 0
125 0
126 0
-127 0
128 0
129 0
130 0
131 0
132 0
133 0
134 0
135 0
136 0
137 0
138 0
139 0
140 0
141 0
142 0
143 0
144 0
145 0
146 0
147 0
148 0
149 0
150 0
151 0
152 0
153 0
154 0
155 0
156 0
157 0
158 0
159 0
160 0
161 0
162 0
163 0
164 0
165 0
166 0
167 0
168 0
169 0
170 0
171 0
172 0
173 0
174 0
175 0
176 0
177 0
178 0
179 0
180 0
-181 0
182 0
183 0
184 0
185 0
186 0
187 0
188 0
189 0
-190 0
191 0
192 0
193 0
194 0
195 0
196 0
197 0
198 0
199 0
200 0
201 0
202 0
203 0
204 0
205 0
206 0
207 0
208 0
209 0
210 0
211 0
212 0
213 0
214 0
215 0
216 0
217 0
218 0
-219 0
220 0
221 0
222 0
223 0
224 0
225 0
226 0
227 0
228 0
229 0
230 0
231 0
232 0
233 0
234 0
235 0
236 0
237 0
238 0
239 0
240 0
241 0
242 0
243 0
244 0
245 0
246 0
247 0
248 0
249 0
250 0
251 0
252 0
253 0
254 0
255 0
256 0
257 0
258 0
259 0
260 0
261 0
262 0
263 0
264 0
265 0
266 0
267 0
268 0
269 0
270 0
271 0
272 0
273 0
274 0
275 0
276 0
277 0
278 0
279 0
-280 0
-281 0
-282 0
-283 0
-284 0
-285 0
-286 0
-287 0
-288 0
-289 0
-290 0
-291 0
-292 0
-293 0
-294 0
-295 0
-296 0
-297 0
-298 0
-299 0
-300 0
-301 0
-302 0
-303 0
-304 0
-305 0
-306 0
-307 0
-308 0
-309 0
-310 0
-311 0
-312 0
-313 0
-314 0
-315 0
-316 0
-317 0
-318 0
-319 0
-320 0
-321 0
-322 0
-323 0
-324 0
-325 0
-326 0
-327 0
-328 0
-329 0
-330 0
-331 0
-332 0
-333 0
-334 0
-335 0
-336 0
-337 0
-338 0
-339 0
-340 0
-341 0
-342 0
-343 0
-344 0
-345 0
-346 0
-347 0
-348 0
-349 0
-350 0
-351 0
-352 0
-353 0
-354 0
-355 0
-356 0
-357 0
-358 0
-359 0
-360 0
-361 0
-362 0
-363 0
-364 0
-365 0
-366 0
-367 0
-368 0
-369 0
-370 0
-371 0
-372 0
-373 0
-374 0
-375 0
-380 0
-382 0
-383 0
-384 0
-385 0
-386 0
-387 0
-388 0
-389 0
-390 0
-392 0
-393 0
-394 0
-395 0
-396 0
-397 0
-398 0
-399 0
-400 0
-401 0
-402 0
403 0
-404 0
-405 0
-406 0
-407 0
-408 0
-409 0
-410 0
-411 0
-412 0
-413 0
-414 0
-415 0
-416 0
-417 0
-418 0
-419 0
-420 0
-421 0
-422 0
-423 0
-424 0
-425 0
-426 0
-427 0
-428 0
-429 0
-430 0
-431 0
-432 0
-433 0
-434 0
-435 0
-436 0
-437 0
-438 0
-439 0
-440 0
-441 0
-442 0
-443 0
-444 0
-445 0
-446 0
-447 0
-448 0
-449 0
-450 0
-451 0
-452 0
-453 0
-454 0
-455 0
-456 0
-457 0
-458 0
-459 0
-460 0
-461 0
-462 0
-463 0
-464 0
-465 0
466 0
-467 0
-468 0
-469 0
-470 0
-471 0
-472 0
-473 0
-474 0
-475 0
-476 0
-477 0
-478 0
-479 0
-480 0
-481 0
-482 0
-483 0
-484 0
-485 0
-486 0
-487 0
-488 0
-489 0
-490 0
-491 0
-492 0
-493 0
-494 0
495 0
-496 0
-497 0
-498 0
-499 0
-500 0
-501 0
-502 0
-503 0
-504 0
-505 0
-506 0
-507 0
-508 0
-509 0
-510 0
-511 0
-512 0
-513 0
-514 0
-515 0
-516 0
-517 0
-518 0
-519 0
-520 0
-521 0
-522 0
-523 0
-524 0
-525 0
-526 0
-527 0
-528 0
-529 0
-530 0
-531 0
-532 0
-533 0
-534 0
-535 0
-536 0
-537 0
-538 0
-539 0
-540 0
-541 0
-542 0
-543 0
-544 0
-545 0
-546 0
-547 0
-548 0
-549 0
-550 0
-551 0
-552 0
-553 0
-554 0
-555 0
556 0
557 0
558 0
-559 0
563 0
-564 0
-568 0
572 0
575 0
-576 0
579 0
581 0
585 0
586 0
602 0
610 0
618 0
-676 0
677 0
678 0
679 0
680 0
681 0
-688 0
760 0
823 0
851 0
856 0
857 0
858 0
859 0
860 0
861 0
862 0
863 0
864 0
865 0
866 0
867 0
868 0
869 0
870 0
871 0
872 0
873 0
874 0
875 0
-876 0
877 0
878 0
879 0
880 0
881 0
882 0
883 0
884 0
885 0
886 0
887 0
888 0
889 0
890 0
891 0
892 0
893 0
894 0
895 0
896 0
897 0
898 0
899 0
900 0
901 0
902 0
903 0
-904 0
905 0
906 0
907 0
908 0
909 0
910 0
911 0
912 0
913 0
914 0
915 0
916 0
917 0
918 0
919 0
920 0
921 0
922 0
923 0
924 0
925 0
926 0
927 0
928 0
929 0
930 0
931 0
932 0
933 0
934 0
935 0
936 0
937 0
938 0
939 0
940 0
941 0
942 0
943 0
944 0
945 0
946 0
947 0
948 0
949 0
950 0
951 0
952 0
953 0
954 0
955 0
956 0
957 0
958 0
959 0
960 0
961 0
962 0
963 0
964 0
965 0
966 0
967 0
968 0
969 0
998 0
-1129 0
1130 0
1131 0
1132 0
1133 0
1135 0
1136 0
1137 0
1138 0
1139 0
1140 0
1141 0
1142 0
1143 0
1144 0
1145 0
1146 0
1147 0
1148 0
1149 0
1150 0
1151 0
1152 0
1153 0
1154 0
1155 0
1156 0
1157 0
1158 0
1159 0
1160 0
1161 0
1162 0
1163 0
1164 0
1165 0
1166 0
1167 0
1168 0
1169 0
1170 0
1171 0
1172 0
1173 0
1174 0
1175 0
1176 0
1177 0
1178 0
1179 0
1180 0
1181 0
1182 0
1183 0
1184 0
1185 0
1186 0
1187 0
1188 0
1189 0
1190 0
1191 0
-1192 0
1193 0
1194 0
1195 0
1196 0
1197 0
1198 0
1199 0
1200 0
1201 0
1202 0
1203 0
1204 0
1205 0
1206 0
1207 0
1208 0
1209 0
1210 0
1211 0
1212 0
1213 0
1214 0
1215 0
1216 0
1217 0
1218 0
1219 0
1220 0
1221 0
1222 0
1223 0
1224 0
1225 0
1226 0
1227 0
1228 0
1229 0
1230 0
1231 0
1232 0
1233 0
1234 0
1235 0
1236 0
1237 0
1238 0
1239 0
1240 0
1241 0
1242 0
1243 0
1244 0
1245 0
1246 0
1247 0
1248 0
1249 0
1251 0
1252 0
1253 0
1254 0
1255 0
1256 0
1257 0
1258 0
1259 0
1260 0
1261 0
1262 0
1263 0
1264 0
1266 0
1267 0
1268 0
1269 0
1271 0
1272 0
1273 0
1274 0
1275 0
1276 0
1277 0
1278 0
1280 0
1281 0
1282 0
1283 0
1284 0
1285 0
1286 0
1288 0
1289 0
1290 0
1291 0
1973 0
-1974 0
-1975 0
-1976 0
-1977 0
-1978 0
-1979 0
-1980 0
-1981 0
-1982 0
-1983 0
-1984 0
-1985 0
-1986 0
-1987 0
-1988 0
-1989 0
-1990 0
-1991 0
-1992 0
-1993 0
-1994 0
-1995 0
-1996 0
-1997 0
-1998 0
-1999 0
-2000 0
-2001 0
-2002 0
-2003 0
-2004 0
-2005 0
-2006 0
-2007 0
-2008 0
-2009 0
-2010 0
-2011 0
-2012 0
-2013 0
-2014 0
-2015 0
-2016 0
-2017 0
-2018 0
-2019 0
-2020 0
-2021 0
-2022 0
-2023 0
-2024 0
-2025 0
-2026 0
-2027 0
-2028 0
-2029 0
-2030 0
-2031 0
-2032 0
-2033 0
-2034 0
-2035 0
-2036 0
-2037 0
-2038 0
-2039 0
-2040 0
-2041 0
-2042 0
-2043 0
-2044 0
-2045 0
-2046 0
-2047 0
-2048 0
-2049 0
-2050 0
-2051 0
-2052 0
-2053 0
-2054 0
-2055 0
-2056 0
-2057 0
-2058 0
-2059 0
-2060 0
-2061 0
-2062 0
-2063 0
-2064 0
-2065 0
-2066 0
-2067 0
-2068 0
-2069 0
-2074 0
-2076 0
-2077 0
-2078 0
-2079 0
-2080 0
-2081 0
-2082 0
-2083 0
-2084 0
-2086 0
-2087 0
-2088 0
-2089 0
-2090 0
-2091 0
-2092 0
-2093 0
-2094 0
-2095 0
-2096 0
-2097 0
-2098 0
-2099 0
-2100 0
-2101 0
-2102 0
-2103 0
-2104 0
-2105 0
-2106 0
-2107 0
-2108 0
-2109 0
-2110 0
-2111 0
-2112 0
-2113 0
-2114 0
-2115 0
-2116 0
-2117 0
-2118 0
-2119 0
-2120 0
-2121 0
-2122 0
-2123 0
-2124 0
-2125 0
-2126 0
-2127 0
-2128 0
-2129 0
-2130 0
-2131 0
-2132 0
-2133 0
-2134 0
-2135 0
-2136 0
-2137 0
-2138 0
-2139 0
-2140 0
-2141 0
-2142 0
-2143 0
-2144 0
-2145 0
-2146 0
-2147 0
-2148 0
-2149 0
-2150 0
-2151 0
-2152 0
-2153 0
-2154 0
-2155 0
-2156 0
-2157 0
-2158 0
-2159 0
-2160 0
-2161 0
-2162 0
-2163 0
-2164 0
-2165 0
-2166 0
-2167 0
-2168 0
-2169 0
-2170 0
-2171 0
-2172 0
-2173 0
-2174 0
-2175 0
-2176 0
-2177 0
-2178 0
-2179 0
-2180 0
-2181 0
-2182 0
-2183 0
-2184 0
-2185 0
-2186 0
-2187 0
-2188 0
-2189 0
-2190 0
-2191 0
-2192 0
-2193 0
-2194 0
-2195 0
-2196 0
-2197 0
-2198 0
-2199 0
-2200 0
-2201 0
-2202 0
-2203 0
-2204 0
-2205 0
-2206 0
-2207 0
-2208 0
-2209 0
-2210 0
-2211 0
-2212 0
-2213 0
-2214 0
-2215 0
-2216 0
-2217 0
-2218 0
-2219 0
-2220 0
-2221 0
-2222 0
-2223 0
-2224 0
-2225 0
-2226 0
-2227 0
-2228 0
-2229 0
-2230 0
-2231 0
-2232 0
-2233 0
-2234 0
-2235 0
-2236 0
-2237 0
-2238 0
-2239 0
-2240 0
-2241 0
-2242 0
-2243 0
-2244 0
-2245 0
-2246 0
-2247 0
-2248 0
-2249 0
-1652 0
-1653 0
-1654 0
-1655 0
-1656 0
-1657 0
-1658 0
-1659 0
-1660 0
-1661 0
-1662 0
-1663 0
-1664 0
-1665 0
-1666 0
-1667 0
-1668 0
-1669 0
-1670 0
-1671 0
-1672 0
-1673 0
-1674 0
-1675 0
-1676 0
-1677 0
-1678 0
-1376 0
-1452 0
-1679 0
-1687 0
-1680 0
-1688 0
-1681 0
-1689 0
-1682 0
-1690 0
-1691 0
-1692 0
-1693 0
-1694 0
-1683 0
-1695 0
-1696 0
-1697 0
-1698 0
-1699 0
-1700 0
-1701 0
-1684 0
-1702 0
-1685 0
-1703 0
-1704 0
-1686 0
-1705 0
-1706 0
-1745 0
-1707 0
-1428 0
-1746 0
-1429 0
-1430 0
-1431 0
-1747 0
-1432 0
-1433 0
-1748 0
-1434 0
-1435 0
-1436 0
-1749 0
-1750 0
-1437 0
-1438 0
-1439 0
-1440 0
-1441 0
-1442 0
-1377 0
-1443 0
-1444 0
-1445 0
-1446 0
-1751 0
-1447 0
-1752 0
-1448 0
-1453 0
-1753 0
-1754 0
-1454 0
-1455 0
-1456 0
-1755 0
-1457 0
-1458 0
-1459 0
-1460 0
-1461 0
-1756 0
-1462 0
-1463 0
-1757 0
-1464 0
-1465 0
-1758 0
-1466 0
-1759 0
-1467 0
-1468 0
-1469 0
-1470 0
-1471 0
-1472 0
-1760 0
-1761 0
-1473 0
-1474 0
-1475 0
-1476 0
-1762 0
-1477 0
-1478 0
-1479 0
-1480 0
-1481 0
-1482 0
-1483 0
-1484 0
-1763 0
-1485 0
-1486 0
-1487 0
-1378 0
-1488 0
-1764 0
-1489 0
-1765 0
-1490 0
-1491 0
-1766 0
-1492 0
-1767 0
-1493 0
-1494 0
-1708 0
-1709 0
-1710 0
-1711 0
-1712 0
-1713 0
-1714 0
-1715 0
-1716 0
-1717 0
-1718 0
-1719 0
-1720 0
-1721 0
-1722 0
-1723 0
-1724 0
-1725 0
-1726 0
-1727 0
-1728 0
-1729 0
-1730 0
-1731 0
-1732 0
-1733 0
-1734 0
-1735 0
-1736 0
-1737 0
-1738 0
-1739 0
-1740 0
-1449 0
-1741 0
-1742 0
-1743 0
-1744 0
-1334 0
-1335 0
-1336 0
-1337 0
-1338 0
-1339 0
-1340 0
-1341 0
-1342 0
-1343 0
-1344 0
-1345 0
-1346 0
-1347 0
-1348 0
-1349 0
-1350 0
-1351 0
-1352 0
-1353 0
-1354 0
-1355 0
-1356 0
-1357 0
-1358 0
-1359 0
-1360 0
-1361 0
-1362 0
-1363 0
-1364 0
-1365 0
-1366 0
-1367 0
-1368 0
-1369 0
-1370 0
-1371 0
-1372 0
-1373 0
-1374 0
-1375 0
-1931 0
-1932 0
-1933 0
-1934 0
-1935 0
-1936 0
-1937 0
-1938 0
-1939 0
-1940 0
-1941 0
-1942 0
-1943 0
-1944 0
-1945 0
-1946 0
-1947 0
-1948 0
-1949 0
-1950 0
-1951 0
-1952 0
-1953 0
-1954 0
-1955 0
-1450 0
-1956 0
-1957 0
-1958 0
-1959 0
-1960 0
-1961 0
-1962 0
-1963 0
-1964 0
-1965 0
-1966 0
-1967 0
-1968 0
-1969 0
-1970 0
-1971 0
-1972 0
-1379 0
-1380 0
-1381 0
-1382 0
-1383 0
-1384 0
-1385 0
-1386 0
-1387 0
-1388 0
-1389 0
-1390 0
-1391 0
-1392 0
-1393 0
-1394 0
-1395 0
-1396 0
-1397 0
-1398 0
-1399 0
-1400 0
-1451 0
-1401 0
-1402 0
-1403 0
-1404 0
-1405 0
-1406 0
-1407 0
-1408 0
-1409 0
-1410 0
-1411 0
-1412 0
-1413 0
-1414 0
-1415 0
-1416 0
-1417 0
-1418 0
-1419 0
-1420 0
-1421 0
-1422 0
-1423 0
-1424 0
-1425 0
-1426 0
-1427 0
-1608 0
-1609 0
-1610 0
-1611 0
-1612 0
-1613 0
-1614 0
-1615 0
-1616 0
-1617 0
-1618 0
-1619 0
-1620 0
-1621 0
-1622 0
-1623 0
-1624 0
-1625 0
-1626 0
-1627 0
-1628 0
-1629 0
-1630 0
-1631 0
-1632 0
-1633 0
-1634 0
-1635 0
-1636 0
-1637 0
-1638 0
-1639 0
-1640 0
-1641 0
-1642 0
-1643 0
-1644 0
-1645 0
-1646 0
-1647 0
-1648 0
-1649 0
-1650 0
-1651 0

